100
1000
200
200
200
199
199
199
198
198
198
197
196
196
196
196
196
196
195
194
193
193
193
191
189
189
188
188
187
186
186
186
186
185
184
184
184
183
183
183
183
183
182
182
182
181
180
180
180
179
176
175
175
174
173
173
172
171
171
170
170
169
168
167
167
166
166
166
165
165
164
164
164
164
163
163
162
162
162
162
161
160
160
160
159
159
159
158
157
156
156
155
154
154
153
152
152
151
151
151
151
150
